(set-info :Origin "This instance was generated by: BanditFuzz-- an RL fuzzer for SMT solvers" )
(set-info :Author "Joe Scott, Fed Mora, Vijay Ganesh" )
(set-info :Contact "Joe Scott, joseph.scott@uwaterloo.ca")
(set-logic QF_BV)
(declare-const bool_0 Bool)
(declare-const bool_1 Bool)
(declare-const bool_2 Bool)
(declare-const bool_3 Bool)
(declare-const bool_4 Bool)
(declare-const bv_0 (_ BitVec 32))
(declare-const bv_1 (_ BitVec 32))
(declare-const bv_2 (_ BitVec 32))
(declare-const bv_3 (_ BitVec 32))
(declare-const bv_4 (_ BitVec 32))
(assert (not (bvuge (bvsdiv #x4bc0dcca  #x23925279 ) (bvudiv #x66b55f4e  bv_2))))
(assert (bvsle (bvsmod (bvsub bv_3 bv_3) (bvsrem #xa116cc79  #x1251c6b7 )) (bvnor (bvudiv #x93de8b86  #x39764c67 ) (bvudiv #x5a535591  #xc67627dc ))))
(assert (bvult (bvurem (bvsdiv bv_3 bv_2) (bvurem bv_1 #x3607847b )) (bvadd (bvor bv_0 bv_1) (bvsmod #xd92caba1  #xcf969d93 ))))
(assert (and (bvult (bvashr bv_0 #x9fd58b5c ) (bvurem #xc368bd2b  bv_3)) (bvule (bvsmod #x6a5052f0  bv_1) (bvsmod #xd3710f36  bv_0))))
(assert (not (not (bvslt bv_3 #x9af18bef ))))
(check-sat)
(exit)
